PROBLEM NAME: eil51_n6
KNAPSACK DATA TYPE: uncorrelated
DIMENSION: 6
NUMBER OF ITEMS: 50
CAPACITY OF KNAPSACK: 25209
MIN SPEED: 0.1
MAX SPEED: 1
RENTING RATIO: 40.42
EDGE_WEIGHT_TYPE: CEIL_2D
NODE_COORD_SECTION	(INDEX, X, Y):
1	31	62
2	52	41
3	27	23
4	57	58
5	62	42
6	43	67
ITEMS SECTION	(INDEX, PROFIT, WEIGHT, ASSIGNED NODE NUMBER):
1	971	41	6
2	954	798	6
3	925	721	6
4	903	776	6
5	899	139	6
6	898	902	6
7	891	532	6
8	887	709	6
9	867	970	6
10	832	220	6
11	832	322	4
12	829	586	4
13	808	906	4
14	801	949	4
15	727	724	4
16	716	727	4
17	710	416	4
18	632	343	4
19	602	326	4
20	572	300	4
21	548	340	5
22	537	551	5
23	518	149	5
24	514	512	5
25	450	624	5
26	445	858	5
27	434	925	5
28	431	493	5
29	406	386	5
30	383	736	5
31	383	700	2
32	377	652	2
33	348	380	2
34	343	581	2
35	308	4	2
36	307	782	2
37	281	930	2
38	272	208	2
39	244	607	2
40	239	364	2
41	218	428	3
42	212	811	3
43	165	338	3
44	147	471	3
45	138	148	3
46	133	239	3
47	116	909	3
48	111	453	3
49	106	893	3
50	91	851	3
